NAME: random-89-1083
TYPE: TSP
COMMENT: size=89 seed=1083
DIMENSION: 180
EDGE_WEIGHT_TYPE: EUC_2D
NODE_COORD_SECTION
+0 981 793
-0 981 793
+1 518 237
-1 802 329
+2 64 83
-2 15 81
+3 183 547
-3 42 18
+4 419 331
-4 215 212
+5 705 306
-5 708 502
+6 828 649
-6 164 998
+7 578 732
-7 756 783
+8 748 164
-8 571 854
+9 62 474
-9 826 578
+10 512 368
-10 665 583
+11 120 369
-11 376 727
+12 237 247
-12 73 200
+13 485 193
-13 761 210
+14 970 384
-14 342 894
+15 513 16
-15 894 777
+16 487 301
-16 755 458
+17 102 326
-17 60 271
+18 605 196
-18 64 768
+19 936 550
-19 147 929
+20 833 457
-20 208 568
+21 731 578
-21 56 637
+22 379 320
-22 560 52
+23 55 121
-23 336 326
+24 866 554
-24 77 449
+25 676 69
-25 76 853
+26 969 221
-26 448 306
+27 436 299
-27 549 103
+28 635 817
-28 333 317
+29 855 307
-29 566 969
+30 174 72
-30 361 808
+31 22 448
-31 674 417
+32 333 925
-32 66 513
+33 992 877
-33 862 50
+34 658 223
-34 848 778
+35 537 975
-35 760 211
+36 720 596
-36 129 40
+37 174 235
-37 882 254
+38 893 725
-38 467 902
+39 348 945
-39 684 215
+40 813 793
-40 92 570
+41 344 330
-41 993 61
+42 556 54
-42 884 229
+43 76 29
-43 880 405
+44 372 735
-44 53 630
+45 389 628
-45 804 914
+46 366 204
-46 623 807
+47 19 856
-47 982 435
+48 455 350
-48 629 822
+49 76 718
-49 32 845
+50 590 765
-50 251 517
+51 549 134
-51 699 360
+52 63 95
-52 171 398
+53 503 300
-53 119 88
+54 115 336
-54 622 935
+55 332 548
-55 438 118
+56 177 174
-56 761 987
+57 396 159
-57 137 419
+58 719 622
-58 576 550
+59 30 744
-59 392 448
+60 202 793
-60 583 167
+61 364 503
-61 54 562
+62 413 924
-62 52 954
+63 525 562
-63 818 23
+64 716 834
-64 439 627
+65 528 966
-65 753 4
+66 38 902
-66 25 123
+67 882 848
-67 254 753
+68 566 971
-68 209 922
+69 657 776
-69 971 115
+70 138 432
-70 53 743
+71 24 734
-71 975 538
+72 824 440
-72 988 717
+73 256 223
-73 57 211
+74 820 237
-74 124 188
+75 561 287
-75 215 536
+76 733 243
-76 195 440
+77 549 365
-77 90 896
+78 678 316
-78 795 711
+79 993 788
-79 199 605
+80 617 30
-80 439 779
+81 298 162
-81 147 859
+82 606 302
-82 727 659
+83 816 731
-83 509 860
+84 688 332
-84 145 323
+85 471 986
-85 533 835
+86 221 873
-86 794 212
+87 749 925
-87 59 210
+88 774 95
-88 386 880
+89 556 871
-89 365 43
PRECEDENCE_SECTION
+0 -0
+1 -1
+2 -2
+3 -3
+4 -4
+5 -5
+6 -6
+7 -7
+8 -8
+9 -9
+10 -10
+11 -11
+12 -12
+13 -13
+14 -14
+15 -15
+16 -16
+17 -17
+18 -18
+19 -19
+20 -20
+21 -21
+22 -22
+23 -23
+24 -24
+25 -25
+26 -26
+27 -27
+28 -28
+29 -29
+30 -30
+31 -31
+32 -32
+33 -33
+34 -34
+35 -35
+36 -36
+37 -37
+38 -38
+39 -39
+40 -40
+41 -41
+42 -42
+43 -43
+44 -44
+45 -45
+46 -46
+47 -47
+48 -48
+49 -49
+50 -50
+51 -51
+52 -52
+53 -53
+54 -54
+55 -55
+56 -56
+57 -57
+58 -58
+59 -59
+60 -60
+61 -61
+62 -62
+63 -63
+64 -64
+65 -65
+66 -66
+67 -67
+68 -68
+69 -69
+70 -70
+71 -71
+72 -72
+73 -73
+74 -74
+75 -75
+76 -76
+77 -77
+78 -78
+79 -79
+80 -80
+81 -81
+82 -82
+83 -83
+84 -84
+85 -85
+86 -86
+87 -87
+88 -88
+89 -89
EOF
